SCIP Status        : solving was interrupted [time limit reached]
Total Time         :    3600.00
  solving          :    3600.00
  presolving       :       0.23 (included in solving)
  reading          :       0.00
  copying          :       0.56 (50 #copies) (minimal 0.00, maximal 0.02, average 0.01)
Original Problem   :
  Problem name     : bbbenchmark/g05_60.9.cut
  Variables        : 61 (60 binary, 0 integer, 0 implicit integer, 1 continuous)
  Constraints      : 1 initial, 1 maximal
  Objective        : minimize, 1 non-zeros (abs.min = 1, abs.max = 1)
Presolved Problem  :
  Problem name     : t_bbbenchmark/g05_60.9.cut
  Variables        : 946 (60 binary, 0 integer, 885 implicit integer, 1 continuous)
  Constraints      : 886 initial, 5640 maximal
  Objective        : minimize, 1 non-zeros (abs.min = 1, abs.max = 1)
  Nonzeros         : 3601 constraint, 122 clique table
Presolvers         :   ExecTime  SetupTime  Calls  FixedVars   AggrVars   ChgTypes  ChgBounds   AddHoles    DelCons    AddCons   ChgSides   ChgCoefs
  boundshift       :       0.00       0.00      0          0          0          0          0          0          0          0          0          0
  convertinttobin  :       0.00       0.00      0          0          0          0          0          0          0          0          0          0
  domcol           :       0.00       0.00      1          0          0          0          0          0          0          0          0          0
  dualagg          :       0.00       0.00      0          0          0          0          0          0          0          0          0          0
  dualcomp         :       0.00       0.00      1          0          0          0          0          0          0          0          0          0
  dualinfer        :       0.00       0.00      0          0          0          0          0          0          0          0          0          0
  dualsparsify     :       0.00       0.00      1          0          0          0          0          0          0          0          0          0
  gateextraction   :       0.00       0.00      0          0          0          0          0          0          0          0          0          0
  implics          :       0.00       0.00      2          0          0          0          0          0          0          0          0          0
  inttobinary      :       0.00       0.00      0          0          0          0          0          0          0          0          0          0
  qpkktref         :       0.00       0.00      0          0          0          0          0          0          0          0          0          0
  redvub           :       0.00       0.00      0          0          0          0          0          0          0          0          0          0
  sparsify         :       0.00       0.00      1          0          0          0          0          0          0          0          0          0
  stuffing         :       0.00       0.00      0          0          0          0          0          0          0          0          0          0
  trivial          :       0.00       0.00      4          0          0          0          0          0          0          0          0          0
  tworowbnd        :       0.00       0.00      0          0          0          0          0          0          0          0          0          0
  dualfix          :       0.00       0.00      4          0          0          0          0          0          0          0          0          0
  genvbounds       :       0.00       0.00      0          0          0          0          0          0          0          0          0          0
  probing          :       0.13       0.00      1          0          0          0          0          0          0          0          0          0
  pseudoobj        :       0.00       0.00      1          0          0          0          1          0          0          0          0          0
  symmetry         :       0.00       0.00      0          0          0          0          0          0          0          0          0          0
  vbounds          :       0.00       0.00      1          0          0          0          0          0          0          0          0          0
  and              :       0.01       0.00      2          0          0          0          0          0          0          0          0          0
  linear           :       0.00       0.00      2          0          0          0          0          0          0          0          0          0
  logicor          :       0.00       0.00      0          0          0          0          0          0          0          0          0          0
  nonlinear        :       0.09       0.01      5          0          0          0          1          0          0        885          0          0
  benders          :       0.00       0.00      0          0          0          0          0          0          0          0          0          0
  components       :       0.00       0.00      1          0          0          0          0          0          0          0          0          0
  root node        :          -          -      -          0          -          -         49          -          -          -          -          -
Constraints        :     Number  MaxNumber  #Separate #Propagate    #EnfoLP    #EnfoRelax  #EnfoPS    #Check   #ResProp    Cutoffs    DomReds       Cuts    Applied      Conss   Children
  benderslp        :          0          0          0          0      91391          0          0       6765          0          0          0          0          0          0          0
  integral         :          0          0          0          0      91391          0          0       6765          0          0      11108          0          0       7820     176432
  and              :        885        885     100083     576826         10          0          0         37     112926        102    3365340       1690       1446          0          0
  linear           :          1+        10         61     576724         10          0          0         35          0          1          0          0          0          0          0
  logicor          :          0+      4751          0     145642          0          0          0          0       4227       1172        329          0          0          0          0
  benders          :          0          0          0          0         10          0          0         38          0          0          0          0          0          0          0
  countsols        :          0          0          0          0         10          0          0         38          0          0          0          0          0          0          0
  components       :          0          0          0          0          0          0          0          0          0          0          0          0          0          0          0
Constraint Timings :  TotalTime  SetupTime   Separate  Propagate     EnfoLP     EnfoPS     EnfoRelax   Check    ResProp    SB-Prop
  benderslp        :       0.08       0.00       0.00       0.00       0.07       0.00       0.00       0.01       0.00       0.00
  integral         :      63.09       0.00       0.00       0.00      63.09       0.00       0.00       0.00       0.00       0.00
  and              :      47.72       0.00      28.29      18.63       0.01       0.00       0.00       0.00       0.07       0.72
  linear           :       0.45       0.00       0.05       0.40       0.00       0.00       0.00       0.00       0.00       0.00
  logicor          :       5.76       0.00       0.00       5.70       0.00       0.00       0.00       0.00       0.00       0.06
  benders          :       0.00       0.00       0.00       0.00       0.00       0.00       0.00       0.00       0.00       0.00
  countsols        :       0.00       0.00       0.00       0.00       0.00       0.00       0.00       0.00       0.00       0.00
  components       :       0.15       0.00       0.00       0.15       0.00       0.00       0.00       0.00       0.00       0.00
Propagators        : #Propagate   #ResProp    Cutoffs    DomReds
  dualfix          :          4          0          0          0
  genvbounds       :          0          0          0          0
  nlobbt           :          0          0          0          0
  obbt             :          0          0          0          0
  probing          :          0          0          0          0
  pseudoobj        :     483874          0          0         50
  redcost          :     220113          0          0     496193
  rootredcost      :         25          0          0          0
  symmetry         :          0          0          0          0
  vbounds          :      52411          0          0          0
Propagator Timings :  TotalTime  SetupTime   Presolve  Propagate    ResProp    SB-Prop
  dualfix          :       0.00       0.00       0.00       0.00       0.00       0.00
  genvbounds       :       0.40       0.00       0.00       0.40       0.00       0.00
  nlobbt           :       0.00       0.00       0.00       0.00       0.00       0.00
  obbt             :       0.00       0.00       0.00       0.00       0.00       0.00
  probing          :       0.13       0.00       0.13       0.00       0.00       0.00
  pseudoobj        :       0.48       0.00       0.00       0.47       0.00       0.01
  redcost          :       7.17       0.00       0.00       7.17       0.00       0.00
  rootredcost      :       0.48       0.00       0.00       0.47       0.00       0.01
  symmetry         :       0.27       0.00       0.00       0.27       0.00       0.00
  vbounds          :       0.50       0.00       0.00       0.48       0.00       0.02
Conflict Analysis  :       Time      Calls    Success    DomReds  Conflicts   Literals    Reconvs ReconvLits   Dualrays   Nonzeros   LP Iters   (pool size: [10000,10000])
  propagation      :       0.02       1275        675          -        778       24.4          0        0.0          -          -          -
  infeasible LP    :       0.00          0          0          -          0        0.0          0        0.0          9       42.8          0
  bound exceed. LP :      15.90      14061      10964          -      55685       31.0         43       21.2          0        0.0      79411
  strong branching :       0.00          0          0          -          0        0.0          0        0.0          -          -          0
  pseudo solution  :       0.00          0          0          -          0        0.0          0        0.0          -          -          -
  applied globally :       0.16          -          -          0      24838       30.9          -          -          9          -          -
  applied locally  :          -          -          -          0          0        0.0          -          -          0          -          -
Separators         :   ExecTime  SetupTime      Calls  RootCalls    Cutoffs    DomReds  FoundCuts ViaPoolAdd  DirectAdd    Applied ViaPoolApp  DirectApp      Conss
  cut pool         :       2.23          -      16507         89          -          -      22729     556578          -          -          -          -          -    (maximal pool size:       1375)
  aggregation      :      18.66       0.00       4764         61          0          0        165       2758          0        800        800          0          0
  > cmir           :          -          -          -          -          -          -          -       2758          0        800        800          0          -
  > flowcover      :          -          -          -          -          -          -          -          0          0          0          0          0          -
  > knapsackcover  :          -          -          -          -          -          -          -          0          0          0          0          0          -
  cgmip            :       0.00       0.00          0          0          0          0          0          0          0          0          0          0          0
  clique           :       0.00       0.00         61         61          0          0          0          0          0          0          0          0          0
  closecuts        :       0.00       0.00          0          0          0          0          0          0          0          0          0          0          0
  convexproj       :       0.00       0.00          0          0          0          0          0          0          0          0          0          0          0
  disjunctive      :       0.00       0.00          0          0          0          0          0          0          0          0          0          0          0
  eccuts           :       0.00       0.00          0          0          0          0          0          0          0          0          0          0          0
  gauge            :       0.00       0.00          0          0          0          0          0          0          0          0          0          0          0
  gomory           :       0.00       0.00          0          0          0          0          0          0          0          0          0          0          0
  > gomorymi       :          -          -          -          -          -          -          -          0          0          0          0          0          -
  > strongcg       :          -          -          -          -          -          -          -          0          0          0          0          0          -
  impliedbounds    :       0.12       0.00       4764         61          0          0          7          1          0          1          1          0          0
  interlattice     :       0.09       0.00         30         30          0          0         30          0         30         29          0         29          0
  interminor       :       0.00       0.00          0          0          0          0          0          0          0          0          0          0          0
  intersub         :       0.00       0.00          0          0          0          0          0          0          0          0          0          0          0
  intobj           :       0.00       0.00          0          0          0          0          0          0          0          0          0          0          0
  mcf              :       0.00       0.00          1          1          0          0          0          0          0          0          0          0          0
  minor            :       0.02       0.00          0          0          0          0          0          0          0          0          0          0          0
  mixing           :       0.01       0.00       4764         61          0          0          0          0          0          0          0          0          0
  oddcycle         :       0.00       0.00          0          0          0          0          0          0          0          0          0          0          0
  rapidlearning    :       0.02       0.00          0          0          0          0          0          0          0          0          0          0          0
  rlt              :       0.00       0.00         10         10          0          0          0          0          0          0          0          0          0
  zerohalf         :      17.76       0.00       3818         20          0          0      22557     553819          0      76263      76263          0          0
Cutselectors       :   ExecTime  SetupTime      Calls  RootCalls   Selected     Forced   Filtered  RootSelec   RootForc   RootFilt 
  hybrid           :       0.33       0.00      10430         59      78540          0     479758        206          0         13
Pricers            :   ExecTime  SetupTime      Calls       Vars
  problem variables:       0.00          -          0          0
Branching Rules    :   ExecTime  SetupTime   BranchLP  BranchExt   BranchPS    Cutoffs    DomReds       Cuts      Conss   Children
  allfullstrong    :       0.00       0.00          0          0          0          0          0          0          0          0
  cloud            :       0.00       0.00          0          0          0          0          0          0          0          0
  distribution     :       0.00       0.00          0          0          0          0          0          0          0          0
  fullstrong       :       0.00       0.00          0          0          0          0          0          0          0          0
  inference        :       0.00       0.00          0          0          0          0          0          0          0          0
  leastinf         :       0.00       0.00          0          0          0          0          0          0          0          0
  lookahead        :       0.00       0.00          0          0          0          0          0          0          0          0
  mostinf          :       0.00       0.00          0          0          0          0          0          0          0          0
  multaggr         :       0.00       0.00          0          0          0          0          0          0          0          0
  nodereopt        :       0.00       0.00          0          0          0          0          0          0          0          0
  pscost           :       0.00       0.00          0          0          0          0          0          0          0          0
  random           :       0.00       0.00          0          0          0          0          0          0          0          0
  relpscost        :      62.91       0.00      91381          0          0          0      11108          0       7878     176432
  vanillafullstrong:       0.00       0.00          0          0          0          0          0          0          0          0
Primal Heuristics  :   ExecTime  SetupTime      Calls      Found       Best
  LP solutions     :       0.00          -          -         10         10
  relax solutions  :       0.00          -          -          0          0
  pseudo solutions :       0.00          -          -          0          0
  strong branching :       0.05          -          -          0          0
  actconsdiving    :       0.00       0.00          0          0          0
  adaptivediving   :      12.81       0.00        615          3          3
  alns             :       1.92       0.00         31          6          5
  bound            :       0.00       0.00          0          0          0
  clique           :       0.01       0.00          1          0          0
  coefdiving       :       0.00       0.00          0          0          0
  completesol      :       0.00       0.00          0          0          0
  conflictdiving   :       4.69       0.00        308          1          1
  crossover        :       0.02       0.00          1          0          0
  dins             :       0.00       0.00          0          0          0
  distributiondivin:      16.52       0.00        308          0          0
  dps              :       0.00       0.00          0          0          0
  dualval          :       0.00       0.00          0          0          0
  farkasdiving     :       0.00       0.00          0          0          0
  feaspump         :       0.08       0.00          1          1          1
  fixandinfer      :       0.00       0.00          0          0          0
  fracdiving       :       8.16       0.00        308          0          0
  gins             :       0.06       0.00          0          0          0
  guideddiving     :       7.74       0.00        308          3          3
  indicator        :       0.04       0.00          0          0          0
  indicatordiving  :       0.00       0.00          0          0          0
  intdiving        :       0.00       0.00          0          0          0
  intshifting      :       0.07       0.00         24          0          0
  linesearchdiving :       7.67       0.00        308          0          0
  localbranching   :       0.00       0.00          0          0          0
  locks            :       0.00       0.00          1          0          0
  lpface           :       0.12       0.00          0          0          0
  mpec             :       2.42       0.00          1          0          0
  multistart       :       0.00       0.00          0          0          0
  mutation         :       0.00       0.00          0          0          0
  nlpdiving        :       3.19       0.00          9          0          0
  objpscostdiving  :      24.96       0.00        103          7          2
  octane           :       0.00       0.00          0          0          0
  ofins            :       0.07       0.00          0          0          0
  oneopt           :       0.15       0.00         34          0          0
  padm             :       0.00       0.00          0          0          0
  proximity        :       0.00       0.00          0          0          0
  pscostdiving     :       7.99       0.00        307          2          2
  randrounding     :       0.28       0.00       6723          0          0
  rens             :       0.00       0.00          0          0          0
  reoptsols        :       0.00       0.00          0          0          0
  repair           :       0.00       0.00          0          0          0
  rins             :       3.51       0.00         19          0          0
  rootsoldiving    :      10.26       0.00         46          2          0
  rounding         :       0.58       0.00       4382          0          0
  shiftandpropagate:       0.00       0.00          0          0          0
  shifting         :      15.71       0.00      10380          8          8
  simplerounding   :       0.04       0.00          0          0          0
  subnlp           :      71.69       0.00          0          0          0
  trivial          :       0.00       0.00          2          2          2
  trivialnegation  :       0.00       0.00          0          0          0
  trustregion      :       0.00       0.00          0          0          0
  trysol           :       0.12       0.00          0          0          0
  twoopt           :       0.00       0.00          0          0          0
  undercover       :       0.13       0.00          1          0          0
  vbounds          :       0.00       0.00          0          0          0
  veclendiving     :       4.07       0.00        308          0          0
  zeroobj          :       0.00       0.00          0          0          0
  zirounding       :       0.25       0.00       1000          0          0
  other solutions  :          -          -          -          0          -
Diving (single)    :      Calls      Nodes   LP Iters Backtracks  Conflicts   MinDepth   MaxDepth   AvgDepth  RoundSols  NLeafSols  MinSolDpt  MaxSolDpt  AvgSolDpt
  actconsdiving    :          0          -          -          -          -          -          -          -          -          -          -          -          -
  coefdiving       :          0          -          -          -          -          -          -          -          -          -          -          -          -
  conflictdiving   :        308       5411      46124        330       4435         19         49       31.8          0          1         36         36       36.0
  distributiondivin:        308       3828     121833        512       3656         20         39       26.0          0          -          -          -          -
  farkasdiving     :          0          -          -          -          -          -          -          -          -          -          -          -          -
  fracdiving       :        308      32772      96016        245       1437         26        224      120.7          0          -          -          -          -
  guideddiving     :        308      29376      94031        201       1241         28        216      110.0          0          3         58         73       66.0
  indicatordiving  :          0          -          -          -          -          -          -          -          -          -          -          -          -
  linesearchdiving :        308       7518      93499        414       5914         25         54       38.3          0          -          -          -          -
  pscostdiving     :        307       5157     104085        314       4808         23         49       31.0          0          2         43         49       46.0
  veclendiving     :        308       5603      35220        310       5078         20         48       32.5          0          -          -          -          -
Diving (adaptive)  :      Calls      Nodes   LP Iters Backtracks  Conflicts   MinDepth   MaxDepth   AvgDepth  RoundSols  NLeafSols  MinSolDpt  MaxSolDpt  AvgSolDpt
  actconsdiving    :         58        749      22721        103        660         21         32       25.8          0          1         31         31       31.0
  coefdiving       :        156       2833      19293        157       2766         22         43       32.2          0          -          -          -          -
  conflictdiving   :          0          -          -          -          -          -          -          -          -          -          -          -          -
  distributiondivin:          0          -          -          -          -          -          -          -          -          -          -          -          -
  farkasdiving     :          0          -          -          -          -          -          -          -          -          -          -          -          -
  fracdiving       :         40       4450      10079         27        177         32        222      126.0          0          -          -          -          -
  guideddiving     :         50       5433      14302         24        121         45        207      123.0          0          1         72         72       72.0
  indicatordiving  :          0          -          -          -          -          -          -          -          -          -          -          -          -
  linesearchdiving :         91       2473      25308        110       1495         27         54       41.0          0          1         46         46       46.0
  pscostdiving     :         99       1628      31601        107       1460         22         43       30.8          0          -          -          -          -
  veclendiving     :        121       2172       9561        122       1764         27         39       32.3          0          -          -          -          -
Neighborhoods      :      Calls  SetupTime  SolveTime SolveNodes       Sols       Best       Exp3  EpsGreedy        UCB TgtFixRate  Opt  Inf Node Stal  Sol  Usr Othr Actv
  rens             :          2       0.01       0.01          0          0          0    0.00000   -1.00000    0.30266      0.700    0    1    0    0    0    0    1    1
  rins             :          2       0.03       0.00          0          0          0    0.00000   -1.00000    0.30266      0.700    0    1    0    0    0    0    1    1
  mutation         :          6       0.11       0.38        216          3          3    0.00000   -1.00000    0.50272      0.506    2    2    0    2    0    0    0    1
  localbranching   :          3       0.06       0.07         40          0          0    0.00000   -1.00000    0.49322      0.437    0    3    0    0    0    0    0    1
  crossover        :          4       0.07       0.10         12          0          0    0.00000   -1.00000    0.52677      0.353    0    4    0    0    0    0    0    1
  proximity        :          5       0.10       0.44        130          2          1    0.00000   -1.00000    0.49969      0.459    1    3    0    1    0    0    0    1
  zeroobjective    :          6       0.10       0.20        149          1          1    0.00000   -1.00000    0.49503      0.562    1    3    0    2    0    0    0    1
  dins             :          3       0.05       0.08         28          0          0    0.00000   -1.00000    0.50879      0.437    0    3    0    0    0    0    0    1
  trustregion      :          0       0.00       0.00          0          0          0    0.00000   -1.00000    1.00000      0.900    0    0    0    0    0    0    0    0
Expressions        :   #IntEval  IntEvalTi   #RevProp  RevPropTi    DomReds    Cutoffs  #Estimate  EstimTime  Branching  #Simplify SimplifyTi Simplified
  pow              :          0       0.00          0       0.00          0          0          0       0.00          0          0       0.00          0
  prod             :       3540       0.00          0       0.00          0          0          0       0.00          0       2655       0.01          0
  sum              :          8       0.00          2       0.00          0          0          0       0.00          0          3       0.01          2
  var              :       3327       0.00          0       0.00          0          0          0       0.00          0       6378       0.01          0
  varidx           :          0       0.00          0       0.00          0          0          0       0.00          0          0       0.00          0
LP                 :       Time      Calls Iterations  Iter/call   Iter/sec  Time-0-It Calls-0-It    ItLimit
  primal LP        :     161.60      17995          0       0.00       0.00     161.51      17995
  dual LP          :    2949.70     211604   27953300     151.37    9476.66       7.67      26930
  lex dual LP      :       0.00          0          0       0.00          -
  barrier LP       :       0.00          0          0       0.00          -       0.00          0
  resolve instable :       0.00          0          0       0.00          -
  diving/probing LP:      79.98       9619    1124724     116.93   14062.57
  strong branching :      38.49       8236     531857      64.58   13818.06          -          -        252
    (at root node) :          -         20       3482     174.10          -
  conflict analysis:       8.69       7992      79411       9.94    9138.20
NLP relaxation     :
  solve time       :       3.16 (9 calls)
  convexity        :  nonconvex (1 linear rows, 0 convex ineq., 0 nonconvex ineq., 885 nonlinear eq. or two-sided ineq.)
NLP Solvers        :  #Problems  ProblemTi    #Solves  SolveTime      #Iter  Time/Iter      #Okay #TimeLimit #IterLimit #LObjLimit #Interrupt  #NumError #EvalError  #OutOfMem #LicenseEr #OtherTerm   #GlobOpt    #LocOpt  #Feasible #LocInfeas #GlobInfea #Unbounded   #Unknown
  ipopt            :          2       4.93         12       5.65        362       0.02         12          0          0          0          0          0          0          0          0          0          0          0          0          3          0          0          9
B&B Tree           :
  number of runs   :          1
  nodes            :     171474 (88216 internal, 83258 leaves)
  feasible leaves  :         10
  infeas. leaves   :        396
  objective leaves :      82851
  nodes (total)    :     171474 (88216 internal, 83258 leaves)
  nodes left       :       4915
  max depth        :         37
  max depth (total):         37
  backtracks       :      45345 (26.4%)
  early backtracks :          0 (0.0%)
  nodes exc. ref.  :          0 (0.0%)
  delayed cutoffs  :          6
  repropagations   :       3734 (664 domain reductions, 2 cutoffs)
  avg switch length:       4.48
  switching time   :     188.17
Estim. Tree Size   :     349122
Estimation Tree    : 176433 nodes (171518 visited, 88216 internal, 83302 leaves, 4915 open), weight: 0.4100 completed 0.6019
Estimations        :      estim      value      trend resolution     smooth
  wbe              :     406383          -          -          -          -
  tree-profile     :         -1          -          -          -          -
  gap              :     597847    0.92857    0.00004        128     588219
  tree-weight      :     349123    0.40997    0.00083        128     352665
  leaf-frequency   :     393139    0.48567    0.00002        128     408542
  ssg              :     337369    0.28702   -0.00043        128     338228
  open-nodes       :     393871 4915.00000   -5.53140        128     407794
Root Node          :
  First LP value   : -1.00000000000000e+00
  First LP Iters   :        638 (21266.67 Iter/sec)
  First LP Time    :       0.03
  Final Dual Bound : -8.98111174949728e-01
  Final Root Iters :       1621
  Root LP Estimate : -5.46796715662708e-01
Solution           :
  Solutions found  :         45 (37 improvements)
  First Solution   : +1.00000000000000e+05   (in run 1, after 0 nodes, 0.02 seconds, depth 0, found by <trivial>)
  Gap First Sol.   :   infinite
  Gap Last Sol.    :      15.99 %
  Primal Bound     : -6.02259887005650e-01   (in run 1, after 60356 nodes, 829.37 seconds, depth 27, found by <relaxation>)
  Dual Bound       : -6.48587570621469e-01
  Gap              :       7.69 %
Integrals          :      Total       Avg%
  primal-dual      :   42413.67      11.78
  primal-ref       :          -          - (not evaluated)
  dual-ref         :          -          - (not evaluated)
